(set-option :print-success false)
(set-logic QF_UF)
(declare-sort x17 0)
(declare-sort x152 0)
(declare-fun x136 (x152 x152) x152)
(declare-fun x135 () x152)
(declare-fun x149 (x152 x152) x152)
(declare-fun x143 () x152)
(declare-fun x55 () x152)
(declare-fun x103 () x152)
(declare-fun x89 () x152)
(assert (or (or (= x143 (x136 x143 x143)) (or (or (= x103 (x136 x103 x103)) (= (x136 x89 x89) x89)) (= x55 (x136 x55 x55)))) (= x135 (x136 x135 x135))))
(assert (and (and (and (or (= (x136 x135 (x136 x55 x135)) x55) (or (= x55 (x136 x143 (x136 x55 x143))) (or (or (= (x136 x103 (x136 x55 x103)) x55) (= (x136 x89 (x136 x55 x89)) x55)) (= x55 (x136 x55 (x136 x55 x55)))))) (and (or (or (or (= (x136 x55 (x136 x89 x55)) x89) (or (= (x136 x103 (x136 x89 x103)) x89) (= (x136 x89 (x136 x89 x89)) x89))) (= x89 (x136 x143 (x136 x89 x143)))) (= x89 (x136 x135 (x136 x89 x135)))) (or (= x103 (x136 x135 (x136 x103 x135))) (or (or (= (x136 x55 (x136 x103 x55)) x103) (or (= x103 (x136 x103 (x136 x103 x103))) (= x103 (x136 x89 (x136 x103 x89))))) (= (x136 x143 (x136 x103 x143)) x103))))) (or (or (= x143 (x136 x143 (x136 x143 x143))) (or (= x143 (x136 x55 (x136 x143 x55))) (or (= (x136 x89 (x136 x143 x89)) x143) (= x143 (x136 x103 (x136 x143 x103)))))) (= (x136 x135 (x136 x143 x135)) x143))) (or (= x135 (x136 x135 (x136 x135 x135))) (or (= (x136 x143 (x136 x135 x143)) x135) (or (or (= (x136 x89 (x136 x135 x89)) x135) (= x135 (x136 x103 (x136 x135 x103)))) (= (x136 x55 (x136 x135 x55)) x135))))))
(assert (and (or (= x135 (x136 x135 (x136 x135 x135))) (or (or (= x55 (x136 x135 (x136 x135 x55))) (or (= x103 (x136 x135 (x136 x135 x103))) (= x89 (x136 x135 (x136 x135 x89))))) (= (x136 x135 (x136 x135 x143)) x143))) (and (and (and (or (or (or (= x55 (x136 x103 (x136 x103 x55))) (or (= (x136 x103 (x136 x103 x89)) x89) (= x103 (x136 x103 (x136 x103 x103))))) (= (x136 x103 (x136 x103 x143)) x143)) (= x135 (x136 x103 (x136 x103 x135)))) (or (= x135 (x136 x89 (x136 x89 x135))) (or (= x143 (x136 x89 (x136 x89 x143))) (or (or (= (x136 x89 (x136 x89 x103)) x103) (= (x136 x89 (x136 x89 x89)) x89)) (= x55 (x136 x89 (x136 x89 x55))))))) (or (= (x136 x55 (x136 x55 x135)) x135) (or (or (= (x136 x55 (x136 x55 x55)) x55) (or (= (x136 x55 (x136 x55 x89)) x89) (= (x136 x55 (x136 x55 x103)) x103))) (= (x136 x55 (x136 x55 x143)) x143)))) (or (= (x136 x143 (x136 x143 x135)) x135) (or (or (= x55 (x136 x143 (x136 x143 x55))) (or (= (x136 x143 (x136 x143 x89)) x89) (= x103 (x136 x143 (x136 x143 x103))))) (= (x136 x143 (x136 x143 x143)) x143))))))
(assert (let ((x50 (x136 x89 x55)) (x120 (x136 x143 x89)) (x97 (x136 x55 x89)) (x154 (x136 x89 x135)) (x101 (x136 x103 x143)) (x45 (x136 x135 x143)) (x121 (not (= x135 (x136 x135 x135)))) (x99 (x136 x89 x103)) (x77 (x136 x55 x143)) (x76 (x136 x143 x55)) (x91 (not (= x55 (x136 x55 x55)))) (x58 (x136 x143 x103)) (x34 (not (= x143 (x136 x143 x143)))) (x20 (x136 x135 x89)) (x94 (x136 x143 x135)) (x151 (x136 x103 x135)) (x47 (x136 x103 x55)) (x36 (x136 x103 x89)) (x23 (x136 x135 x55)) (x106 (x136 x55 x103)) (x79 (not (= (x136 x89 x89) x89))) (x157 (x136 x55 x135)) (x159 (x136 x89 x143)) (x124 (x136 x135 x103)) (x86 (not (= (x136 x103 x103) x103)))) (or (and (and (and (not (= x143 x45)) (and (not (= x55 x23)) (and (not (= x20 x89)) (not (= x103 x124))))) x121) (and x121 (and (and (and (not (= x151 x103)) (not (= x89 x154))) (not (= x157 x55))) (not (= x94 x143))))) (or (and (and (not (= x94 x135)) (and x34 (and (not (= x55 x76)) (and (not (= x58 x103)) (not (= x89 x120)))))) (and (and x34 (and (and (not (= x89 x159)) (not (= x101 x103))) (not (= x77 x55)))) (not (= x135 x45)))) (or (and (and (and (and x91 (and (not (= x106 x103)) (not (= x97 x89)))) (not (= x143 x77))) (not (= x135 x157))) (and (and (not (= x143 x76)) (and x91 (and (not (= x103 x47)) (not (= x89 x50))))) (not (= x23 x135)))) (or (and (and (not (= x135 x124)) (and (not (= x58 x143)) (and (and (not (= x99 x89)) x86) (not (= x106 x55))))) (and (and (not (= x143 x101)) (and (and (not (= x89 x36)) x86) (not (= x47 x55)))) (not (= x135 x151)))) (and (and (not (= x135 x154)) (and (and (not (= x50 x55)) (and x79 (not (= x99 x103)))) (not (= x159 x143)))) (and (not (= x135 x20)) (and (not (= x120 x143)) (and (not (= x55 x97)) (and x79 (not (= x36 x103)))))))))))))
(assert (let ((x116 (x136 x135 x103)) (x108 (x136 x89 x103)) (x96 (x136 x135 x55)) (x62 (x136 x55 x135)) (x48 (x136 x55 x55)) (x105 (x136 x103 x143)) (x153 (x136 x55 x89)) (x130 (x136 x103 x103)) (x51 (x136 x103 x55)) (x141 (x136 x89 x143)) (x10 (x136 x143 x143)) (x123 (x136 x89 x135)) (x127 (x136 x55 x103)) (x80 (x136 x89 x55)) (x67 (x136 x103 x135)) (x117 (x136 x103 x89)) (x119 (x136 x143 x103)) (x72 (x136 x135 x143)) (x142 (x136 x55 x143)) (x35 (x136 x143 x89)) (x54 (x136 x89 x89)) (x15 (x136 x135 x89)) (x150 (x136 x143 x135)) (x88 (x136 x143 x55)) (x134 (x136 x135 x135))) (let ((x146 (= x54 x55)) (x107 (= x130 x135)) (x157 (= x15 x103)) (x158 (= x55 x153)) (x21 (= x88 x135)) (x26 (= x35 x135)) (x16 (= x117 x135)) (x28 (= x135 x116)) (x112 (= x55 x67)) (x129 (= x51 x55)) (x128 (= x117 x55)) (x6 (= x89 x134)) (x75 (= x48 x89)) (x57 (= x54 x89)) (x118 (= x10 x55)) (x59 (= x143 x48)) (x106 (= x153 x103)) (x24 (= x80 x135)) (x110 (= x119 x143)) (x60 (= x135 x51)) (x53 (= x123 x135)) (x83 (= x89 x35)) (x111 (= x143 x62)) (x114 (= x35 x55)) (x25 (= x135 x134)) (x61 (= x143 x142)) (x98 (= x10 x135)) (x91 (= x103 x48)) (x74 (= x15 x55)) (x66 (= x15 x135)) (x92 (= x72 x143)) (x14 (= x55 x116)) (x101 (= x119 x103)) (x11 (= x108 x55)) (x133 (= x89 x116)) (x8 (= x142 x89)) (x70 (= x143 x123)) (x23 (= x72 x103)) (x64 (= x143 x116)) (x90 (= x96 x55)) (x125 (= x135 x108)) (x113 (= x135 x48)) (x41 (= x55 x88)) (x37 (= x55 x134)) (x155 (= x119 x135)) (x36 (= x108 x103)) (x27 (= x89 x105)) (x68 (= x150 x135)) (x4 (= x67 x135)) (x131 (= x141 x89)) (x87 (= x55 x48)) (x43 (= x80 x55)) (x78 (= x89 x127)) (x126 (= x105 x143)) (x18 (= x89 x62)) (x154 (= x67 x103)) (x65 (= x89 x88)) (x52 (= x55 x150)) (x33 (= x143 x51)) (x140 (= x55 x130)) (x19 (= x55 x123)) (x13 (= x89 x153)) (x115 (= x141 x143)) (x47 (= x103 x127)) (x50 (= x103 x51)) (x77 (= x35 x103)) (x39 (= x143 x80)) (x69 (= x72 x135)) (x151 (= x103 x116)) (x12 (= x143 x10)) (x81 (= x150 x89)) (x7 (= x135 x96)) (x144 (= x105 x135)) (x58 (= x141 x103)) (x122 (= x89 x67)) (x148 (= x141 x55)) (x22 (= x51 x89)) (x138 (= x143 x96)) (x95 (= x142 x55)) (x56 (= x96 x89)) (x99 (= x117 x103)) (x3 (= x80 x89)) (x20 (= x103 x62)) (x94 (= x123 x103)) (x109 (= x89 x123)) (x79 (= x54 x103)) (x31 (= x62 x55)) (x121 (= x103 x134)) (x86 (= x130 x103)) (x104 (= x127 x135)) (x147 (= x143 x117)) (x40 (= x54 x143)) (x9 (= x143 x67)) (x84 (= x150 x143)) (x145 (= x143 x108)) (x97 (= x103 x80)) (x29 (= x89 x108)) (x32 (= x72 x89)) (x30 (= x135 x141)) (x49 (= x127 x55)) (x139 (= x130 x89)) (x2 (= x135 x54)) (x45 (= x103 x150)) (x73 (= x135 x62)) (x76 (= x103 x142)) (x38 (= x10 x89)) (x124 (= x103 x96)) (x42 (= x143 x88)) (x71 (= x89 x117)) (x102 (= x119 x55)) (x85 (= x135 x142)) (x156 (= x143 x134)) (x100 (= x130 x143)) (x63 (= x143 x153)) (x82 (= x153 x135)) (x159 (= x105 x103)) (x34 (= x103 x10)) (x5 (= x55 x105)) (x120 (= x88 x103)) (x44 (= x89 x15)) (x46 (= x127 x143)) (x1 (= x89 x119)) (x132 (= x55 x72)) (x93 (= x35 x143)) (x137 (= x15 x143))) (and (and (or (or (and x156 x156) (or (or (or (and x137 x70) (and x64 x9)) (and x138 x111)) (and x92 x84))) (or (or (or (or (or (or (and x39 x63) (or (and x147 x145) (and x40 x40))) (and x93 x115)) (and x70 x137)) (or (or (or (or (and x100 x100) (and x145 x147)) (and x33 x46)) (and x110 x126)) (and x64 x9))) (or (or (or (and x59 x59) (or (and x33 x46) (and x39 x63))) (and x61 x42)) (and x138 x111))) (or (and x92 x84) (or (and x12 x12) (or (or (and x115 x93) (and x110 x126)) (and x42 x61)))))) (and (and (or (or (or (or (or (or (and x1 x27) (and x83 x131)) (and x65 x8)) (and x38 x38)) (and x32 x81)) (or (or (or (or (or (and x3 x13) (or (and x57 x57) (and x71 x29))) (and x83 x131)) (and x109 x44)) (or (or (or (or (and x29 x71) (and x139 x139)) (and x78 x22)) (and x27 x1)) (and x133 x122))) (or (or (and x65 x8) (or (or (and x78 x22) (and x3 x13)) (and x75 x75))) (and x18 x56)))) (or (and x6 x6) (or (and x32 x81) (or (or (and x44 x109) (and x133 x122)) (and x18 x56))))) (or (or (and x121 x121) (or (and x23 x45) (or (or (and x154 x151) (and x94 x157)) (and x20 x124)))) (or (or (and x23 x45) (or (and x34 x34) (or (and x120 x76) (or (and x77 x58) (and x159 x101))))) (or (or (or (and x154 x151) (or (or (and x50 x47) (or (and x36 x99) (and x86 x86))) (and x101 x159))) (or (and x94 x157) (or (and x58 x77) (or (or (and x36 x99) (and x79 x79)) (and x106 x97))))) (or (or (or (and x91 x91) (or (and x50 x47) (and x106 x97))) (and x76 x120)) (and x20 x124)))))) (or (or (or (and x132 x52) (or (and x118 x118) (or (or (and x114 x148) (and x5 x102)) (and x41 x95)))) (or (or (or (or (or (or (and x128 x11) (and x140 x140)) (and x129 x49)) (and x5 x102)) (and x14 x112)) (or (and x19 x74) (or (and x148 x114) (or (and x43 x158) (or (and x146 x146) (and x128 x11)))))) (or (and x31 x90) (or (or (or (and x43 x158) (and x49 x129)) (and x87 x87)) (and x95 x41))))) (or (and x37 x37) (or (or (or (and x112 x14) (and x74 x19)) (and x31 x90)) (and x132 x52)))))) (or (or (or (or (or (or (or (or (and x125 x16) (and x2 x2)) (and x82 x24)) (and x30 x26)) (and x66 x53)) (or (and x4 x28) (or (and x155 x144) (or (or (and x125 x16) (and x107 x107)) (and x60 x104))))) (or (and x7 x73) (or (and x85 x21) (or (or (and x60 x104) (and x82 x24)) (and x113 x113))))) (or (or (or (and x85 x21) (or (and x144 x155) (and x26 x30))) (and x98 x98)) (and x69 x68))) (or (and x25 x25) (or (and x69 x68) (or (or (and x28 x4) (and x53 x66)) (and x73 x7)))))))))
(assert (or (or (and (not (= (x136 (x136 x143 x135) x143) x135)) (and (not (= x143 (x136 (x136 x143 x143) x143))) (and (and (not (= x103 (x136 (x136 x143 x103) x143))) (not (= (x136 (x136 x143 x89) x143) x89))) (not (= (x136 (x136 x143 x55) x143) x55))))) (or (and (not (= x135 (x136 (x136 x55 x135) x55))) (and (not (= x143 (x136 (x136 x55 x143) x55))) (and (and (not (= x103 (x136 (x136 x55 x103) x55))) (not (= x89 (x136 (x136 x55 x89) x55)))) (not (= x55 (x136 (x136 x55 x55) x55)))))) (or (and (and (not (= x143 (x136 (x136 x89 x143) x89))) (and (and (not (= (x136 (x136 x89 x89) x89) x89)) (not (= x103 (x136 (x136 x89 x103) x89)))) (not (= (x136 (x136 x89 x55) x89) x55)))) (not (= x135 (x136 (x136 x89 x135) x89)))) (and (and (not (= (x136 (x136 x103 x143) x103) x143)) (and (and (not (= (x136 (x136 x103 x103) x103) x103)) (not (= (x136 (x136 x103 x89) x103) x89))) (not (= x55 (x136 (x136 x103 x55) x103))))) (not (= x135 (x136 (x136 x103 x135) x103))))))) (and (not (= (x136 (x136 x135 x135) x135) x135)) (and (and (not (= x55 (x136 (x136 x135 x55) x135))) (and (not (= x103 (x136 (x136 x135 x103) x135))) (not (= x89 (x136 (x136 x135 x89) x135))))) (not (= (x136 (x136 x135 x143) x135) x143))))))
(assert (let ((x77 (x136 x55 x89)) (x154 (x136 x143 x55)) (x97 (x136 x89 x55)) (x151 (x136 x143 x89)) (x94 (x136 x143 x135)) (x47 (x136 x103 x135)) (x101 (x136 x89 x135)) (x58 (x136 x55 x55)) (x124 (x136 x135 x103)) (x159 (x136 x55 x103)) (x79 (x136 x103 x143)) (x120 (x136 x55 x143)) (x157 (x136 x143 x143)) (x20 (x136 x135 x89)) (x34 (x136 x143 x103)) (x45 (x136 x135 x143)) (x76 (x136 x55 x135)) (x86 (x136 x103 x103)) (x50 (x136 x89 x103)) (x91 (x136 x89 x143)) (x23 (x136 x135 x55)) (x99 (x136 x103 x55)) (x106 (x136 x89 x89)) (x36 (x136 x103 x89)) (x121 (x136 x135 x135))) (and (and (and (and (and (and (and (and (or (or (or (= x86 x55) (or (= x86 x89) (= x86 x103))) (= x143 x86)) (= x86 x135)) (or (= x36 x135) (or (= x143 x36) (or (= x36 x55) (or (= x36 x103) (= x89 x36)))))) (or (or (or (= x99 x55) (or (= x99 x89) (= x103 x99))) (= x143 x99)) (= x135 x99))) (or (or (or (= x55 x79) (or (= x79 x103) (= x79 x89))) (= x79 x143)) (= x79 x135))) (or (= x47 x135) (or (or (= x55 x47) (or (= x89 x47) (= x103 x47))) (= x47 x143)))) (and (or (= x101 x135) (or (= x143 x101) (or (or (= x101 x89) (= x101 x103)) (= x55 x101)))) (and (and (or (or (= x143 x97) (or (= x55 x97) (or (= x97 x89) (= x103 x97)))) (= x135 x97)) (and (or (= x135 x106) (or (= x143 x106) (or (= x55 x106) (or (= x106 x103) (= x106 x89))))) (or (= x50 x135) (or (= x50 x143) (or (= x50 x55) (or (= x50 x103) (= x89 x50))))))) (or (or (= x143 x91) (or (= x55 x91) (or (= x89 x91) (= x103 x91)))) (= x91 x135))))) (and (or (or (or (= x55 x76) (or (= x103 x76) (= x76 x89))) (= x76 x143)) (= x135 x76)) (and (or (= x120 x135) (or (= x143 x120) (or (= x120 x55) (or (= x89 x120) (= x103 x120))))) (and (or (or (= x143 x58) (or (or (= x58 x89) (= x103 x58)) (= x58 x55))) (= x58 x135)) (and (or (or (or (or (= x77 x89) (= x77 x103)) (= x55 x77)) (= x77 x143)) (= x135 x77)) (or (= x135 x159) (or (or (= x159 x55) (or (= x89 x159) (= x159 x103))) (= x143 x159)))))))) (and (and (and (and (or (or (= x143 x151) (or (= x55 x151) (or (= x151 x103) (= x89 x151)))) (= x151 x135)) (or (or (= x143 x34) (or (= x34 x55) (or (= x34 x103) (= x34 x89)))) (= x135 x34))) (or (= x154 x135) (or (= x154 x143) (or (or (= x154 x89) (= x103 x154)) (= x55 x154))))) (or (= x157 x135) (or (or (or (= x157 x89) (= x157 x103)) (= x55 x157)) (= x157 x143)))) (or (= x94 x135) (or (or (= x55 x94) (or (= x94 x103) (= x89 x94))) (= x143 x94))))) (and (and (and (or (or (or (= x55 x23) (or (= x89 x23) (= x103 x23))) (= x143 x23)) (= x135 x23)) (and (or (or (= x143 x124) (or (= x124 x55) (or (= x124 x103) (= x124 x89)))) (= x135 x124)) (or (or (= x143 x20) (or (or (= x20 x103) (= x89 x20)) (= x55 x20))) (= x135 x20)))) (or (= x45 x135) (or (= x143 x45) (or (= x45 x55) (or (= x89 x45) (= x103 x45)))))) (or (= x121 x135) (or (or (or (= x89 x121) (= x121 x103)) (= x121 x55)) (= x143 x121)))))))
(assert (not (and (and (= (x136 x135 x143) x89) (and (= x55 (x136 x135 x55)) (and (= x143 (x136 x135 x89)) (and (= (x136 x135 x103) x135) (and (and (and (and (= (x136 x143 x89) x135) (and (= (x136 x143 x103) x89) (and (and (= x135 (x136 x55 x143)) (and (and (and (and (= x89 (x136 x89 x135)) (and (= x103 (x136 x89 x143)) (and (= (x136 x89 x55) x135) (and (= (x136 x89 x89) x55) (and (and (and (and (= x143 (x136 x103 x55)) (and (= (x136 x103 x89) x89) (= (x136 x103 x103) x103))) (= (x136 x103 x143) x55)) (= x135 (x136 x103 x135))) (= (x136 x89 x103) x143)))))) (= (x136 x55 x103) x55)) (= (x136 x55 x89) x103)) (= x89 (x136 x55 x55)))) (= (x136 x55 x135) x143)))) (= x103 (x136 x143 x55))) (= (x136 x143 x143) x143)) (= x55 (x136 x143 x135))))))) (= x103 (x136 x135 x135)))))
(assert (let ((x86 (x136 x103 x103)) (x120 (x136 x143 x55)) (x91 (x136 x55 x55)) (x121 (x136 x135 x135)) (x77 (x136 x143 x89)) (x58 (x136 x89 x143)) (x79 (x136 x89 x89)) (x36 (x136 x89 x103)) (x76 (x136 x55 x143)) (x47 (x136 x55 x103)) (x34 (x136 x143 x143)) (x154 (x136 x103 x135)) (x106 (x136 x55 x89)) (x45 (x136 x143 x135)) (x101 (x136 x143 x103)) (x157 (x136 x135 x89)) (x23 (x136 x135 x143)) (x159 (x136 x103 x143)) (x99 (x136 x103 x89)) (x97 (x136 x89 x55)) (x94 (x136 x89 x135)) (x151 (x136 x135 x103)) (x20 (x136 x55 x135)) (x124 (x136 x135 x55)) (x50 (x136 x103 x55))) (and (and (and (or (or (or (not (= x91 x91)) (or (not (= x50 x47)) (not (= x106 x97)))) (not (= x76 x120))) (not (= x124 x20))) (and (or (not (= x151 x154)) (or (not (= x159 x101)) (or (or (not (= x86 x86)) (not (= x36 x99))) (not (= x50 x47))))) (or (or (not (= x58 x77)) (or (or (not (= x79 x79)) (not (= x36 x99))) (not (= x97 x106)))) (not (= x157 x94))))) (or (or (or (or (not (= x159 x101)) (not (= x77 x58))) (not (= x120 x76))) (not (= x34 x34))) (not (= x23 x45)))) (or (not (= x121 x121)) (or (or (not (= x124 x20)) (or (not (= x94 x157)) (not (= x151 x154)))) (not (= x23 x45)))))))
(assert (and (and (not (= x55 x135)) (and (not (= x55 x143)) (and (not (= x89 x135)) (and (not (= x89 x143)) (and (and (and (not (= x103 x143)) (and (not (= x103 x55)) (not (= x103 x89)))) (not (= x103 x135))) (not (= x89 x55))))))) (not (= x135 x143))))
(assert (let ((x79 (x136 x143 x143)) (x47 (x136 x135 x135)) (x99 (x136 x55 x55)) (x36 (x136 x89 x89)) (x86 (x136 x103 x103))) (or (and (not (= x135 x47)) (and (not (= x79 x135)) (and (and (not (= x86 x135)) (not (= x135 x36))) (not (= x135 x99))))) (or (or (and (not (= x55 x47)) (and (and (and (not (= x55 x86)) (not (= x36 x55))) (not (= x55 x99))) (not (= x55 x79)))) (or (and (not (= x47 x89)) (and (and (not (= x99 x89)) (and (not (= x36 x89)) (not (= x89 x86)))) (not (= x79 x89)))) (and (and (and (not (= x103 x99)) (and (not (= x103 x86)) (not (= x36 x103)))) (not (= x79 x103))) (not (= x103 x47))))) (and (not (= x143 x47)) (and (not (= x79 x143)) (and (not (= x143 x99)) (and (not (= x86 x143)) (not (= x143 x36))))))))))
(assert (let ((x23 (x136 x55 x135)) (x151 (x136 x89 x143)) (x120 (x136 x143 x55)) (x58 (x136 x55 x55)) (x36 (x136 x89 x103)) (x77 (x136 x89 x55)) (x20 (x136 x89 x135)) (x91 (x136 x143 x89)) (x79 (x136 x143 x103)) (x99 (x136 x55 x103)) (x121 (x136 x135 x135)) (x34 (x136 x103 x143)) (x157 (x136 x143 x143)) (x50 (x136 x103 x89)) (x154 (x136 x55 x143)) (x86 (x136 x103 x103)) (x106 (x136 x89 x89)) (x76 (x136 x135 x55)) (x47 (x136 x135 x103)) (x97 (x136 x55 x89)) (x94 (x136 x135 x143)) (x101 (x136 x135 x89)) (x124 (x136 x103 x135)) (x45 (x136 x143 x135)) (x159 (x136 x103 x55))) (and (and (and (not (= x121 x94)) (and (not (= x76 x121)) (and (and (not (= x101 x121)) (and (and (and (not (= x121 x47)) (and (not (= x94 x47)) (and (not (= x101 x47)) (not (= x76 x47))))) (not (= x76 x101))) (not (= x94 x101)))) (not (= x76 x94))))) (and (and (not (= x157 x45)) (and (and (not (= x157 x120)) (and (and (and (and (not (= x79 x45)) (and (and (not (= x120 x79)) (not (= x91 x79))) (not (= x79 x157)))) (not (= x91 x120))) (not (= x91 x157))) (not (= x45 x91)))) (not (= x45 x120)))) (and (and (and (not (= x23 x58)) (and (and (not (= x97 x23)) (and (not (= x97 x154)) (and (not (= x97 x58)) (and (not (= x23 x99)) (and (and (not (= x58 x99)) (not (= x99 x97))) (not (= x99 x154))))))) (not (= x58 x154)))) (not (= x23 x154))) (and (and (and (and (not (= x34 x159)) (and (not (= x50 x124)) (and (and (and (not (= x86 x124)) (and (and (not (= x86 x159)) (not (= x86 x50))) (not (= x86 x34)))) (not (= x159 x50))) (not (= x50 x34))))) (not (= x159 x124))) (not (= x124 x34))) (and (not (= x20 x151)) (and (not (= x77 x20)) (and (and (not (= x106 x20)) (and (not (= x106 x151)) (and (and (and (and (not (= x106 x36)) (not (= x77 x36))) (not (= x36 x151))) (not (= x20 x36))) (not (= x106 x77))))) (not (= x77 x151))))))))) (and (and (and (not (= x94 x157)) (and (not (= x94 x154)) (and (and (and (and (and (and (not (= x157 x34)) (and (not (= x151 x34)) (not (= x154 x34)))) (not (= x34 x94))) (not (= x151 x154))) (not (= x151 x157))) (not (= x94 x151))) (not (= x157 x154))))) (and (and (and (and (and (and (not (= x36 x47)) (and (not (= x36 x79)) (and (and (not (= x86 x47)) (and (not (= x86 x79)) (and (not (= x99 x86)) (not (= x36 x86))))) (not (= x36 x99))))) (not (= x99 x79))) (not (= x99 x47))) (not (= x47 x79))) (and (and (and (and (not (= x101 x106)) (and (not (= x106 x91)) (and (not (= x97 x106)) (and (and (and (not (= x106 x50)) (not (= x50 x97))) (not (= x50 x91))) (not (= x101 x50)))))) (not (= x97 x91))) (not (= x97 x101))) (not (= x91 x101)))) (and (and (and (and (and (and (not (= x58 x77)) (and (and (and (not (= x58 x159)) (not (= x159 x77))) (not (= x120 x159))) (not (= x76 x159)))) (not (= x120 x77))) (not (= x77 x76))) (not (= x120 x58))) (not (= x76 x58))) (not (= x76 x120))))) (and (not (= x45 x121)) (and (not (= x23 x121)) (and (and (and (not (= x45 x20)) (and (not (= x23 x20)) (and (and (and (not (= x124 x23)) (not (= x124 x20))) (not (= x124 x45))) (not (= x121 x124))))) (not (= x121 x20))) (not (= x23 x45)))))))))
(assert (let ((x20 (x136 x89 x135)) (x139 (x136 x135 x89)) (x43 (x136 x135 x143)) (x9 (x136 x135 x135)) (x47 (x136 x103 x143)) (x50 (x136 x103 x135)) (x123 (x136 x55 x55)) (x91 (x136 x55 x103)) (x99 (x136 x103 x89)) (x94 (x136 x89 x55)) (x36 (x136 x103 x103)) (x124 (x136 x89 x143)) (x79 (x136 x103 x55)) (x101 (x136 x143 x103)) (x11 (x136 x143 x143)) (x128 (x136 x143 x135)) (x48 (x136 x143 x55)) (x75 (x136 x135 x55)) (x78 (x136 x55 x135)) (x97 (x136 x89 x103)) (x159 (x136 x135 x103)) (x130 (x136 x143 x89)) (x157 (x136 x89 x89)) (x15 (x136 x55 x143)) (x121 (x136 x55 x89))) (let ((x119 (= x143 x157)) (x147 (= x135 x15)) (x8 (= x143 x123)) (x116 (= x135 x99)) (x34 (= x99 x103)) (x28 (= x159 x135)) (x2 (= x20 x55)) (x80 (= x103 x94)) (x142 (= x91 x55)) (x44 (= x130 x103)) (x30 (= x20 x143)) (x92 (= x89 x9)) (x93 (= x103 x128)) (x104 (= x78 x55)) (x134 (= x101 x89)) (x65 (= x143 x94)) (x90 (= x143 x15)) (x155 (= x143 x75)) (x40 (= x135 x11)) (x60 (= x55 x128)) (x158 (= x89 x11)) (x3 (= x89 x123)) (x145 (= x135 x124)) (x21 (= x143 x78)) (x13 (= x94 x89)) (x129 (= x15 x89)) (x64 (= x89 x43)) (x70 (= x89 x20)) (x148 (= x124 x55)) (x45 (= x157 x89)) (x56 (= x47 x103)) (x126 (= x78 x103)) (x51 (= x55 x157)) (x19 (= x124 x143)) (x14 (= x130 x143)) (x26 (= x50 x143)) (x38 (= x121 x135)) (x109 (= x103 x48)) (x57 (= x79 x103)) (x12 (= x89 x75)) (x32 (= x15 x103)) (x111 (= x128 x89)) (x86 (= x103 x36)) (x61 (= x139 x89)) (x68 (= x128 x135)) (x137 (= x50 x89)) (x115 (= x103 x9)) (x71 (= x103 x91)) (x83 (= x143 x121)) (x4 (= x139 x135)) (x72 (= x94 x135)) (x138 (= x89 x78)) (x62 (= x55 x79)) (x133 (= x123 x135)) (x5 (= x55 x48)) (x95 (= x11 x55)) (x31 (= x143 x11)) (x76 (= x97 x103)) (x74 (= x143 x47)) (x41 (= x15 x55)) (x151 (= x157 x103)) (x63 (= x75 x103)) (x96 (= x94 x55)) (x42 (= x159 x89)) (x54 (= x121 x103)) (x108 (= x99 x55)) (x81 (= x103 x11)) (x102 (= x130 x55)) (x77 (= x36 x55)) (x73 (= x20 x135)) (x150 (= x79 x135)) (x98 (= x143 x9)) (x58 (= x143 x36)) (x114 (= x47 x55)) (x46 (= x103 x159)) (x118 (= x101 x143)) (x156 (= x55 x139)) (x39 (= x43 x103)) (x23 (= x89 x99)) (x18 (= x103 x124)) (x6 (= x130 x89)) (x112 (= x143 x48)) (x117 (= x55 x97)) (x87 (= x55 x101)) (x113 (= x139 x143)) (x37 (= x48 x135)) (x120 (= x135 x36)) (x33 (= x103 x139)) (x132 (= x135 x101)) (x125 (= x43 x55)) (x69 (= x135 x78)) (x24 (= x143 x159)) (x35 (= x89 x121)) (x16 (= x55 x50)) (x141 (= x91 x89)) (x153 (= x123 x103)) (x7 (= x50 x135)) (x22 (= x79 x89)) (x27 (= x91 x143)) (x106 (= x89 x36)) (x110 (= x20 x103)) (x131 (= x79 x143)) (x67 (= x135 x97)) (x59 (= x103 x50)) (x1 (= x123 x55)) (x52 (= x135 x130)) (x140 (= x89 x48)) (x146 (= x47 x89)) (x144 (= x43 x143)) (x25 (= x135 x9)) (x53 (= x135 x43)) (x82 (= x9 x55)) (x127 (= x143 x97)) (x84 (= x55 x159)) (x107 (= x55 x75)) (x85 (= x143 x128)) (x154 (= x89 x97)) (x88 (= x121 x55)) (x29 (= x157 x135)) (x66 (= x135 x75)) (x10 (= x91 x135)) (x122 (= x103 x101)) (x100 (= x47 x135)) (x49 (= x124 x89)) (x105 (= x99 x143))) (and (and (and (and (and (and (and (or (or (or x27 (or x127 x58)) x118) x24) (or (or (or x131 (or x105 x58)) x74) x26)) (and (and (or (or x114 (or (or x108 x77) x62)) x16) (or (or x87 (or (or x77 x117) x142)) x84)) (and (and (or x137 (or x146 (or (or x106 x23) x22))) (or (or (or (or x106 x154) x141) x134) x42)) (and (or (or x122 (or x71 (or x76 x86))) x46) (or (or x56 (or (or x34 x86) x57)) x59))))) (and (or (or (or x150 (or x120 x116)) x100) x7) (or (or x132 (or (or x67 x120) x10)) x28))) (and (and (or (or x145 (or x72 (or x29 x67))) x73) (or (or (or (or x116 x29) x38) x52) x4)) (and (and (and (or (or x102 (or (or x51 x108) x88)) x156) (or (or (or (or x51 x117) x96) x148) x2)) (and (and (or (or (or x54 (or x34 x151)) x44) x33) (or (or (or x80 (or x76 x151)) x18) x110)) (and (or x70 (or x49 (or x13 (or x45 x154)))) (or x61 (or (or x35 (or x45 x23)) x6))))) (and (or x30 (or x19 (or (or x127 x119) x65))) (or x113 (or (or (or x119 x105) x83) x14)))))) (and (and (or (or (or x133 (or x72 x150)) x37) x66) (or (or x147 (or (or x38 x10) x133)) x69)) (and (and (and (and (or (or x140 (or (or x22 x13) x3)) x12) (or (or (or x3 (or x141 x35)) x129) x138)) (and (or x63 (or (or (or x57 x80) x153) x109)) (or (or (or (or x54 x71) x153) x32) x126))) (and (or x104 (or (or (or x88 x142) x1) x41)) (or (or x5 (or (or x62 x96) x1)) x107))) (and (or (or (or (or x131 x65) x8) x112) x155) (or (or (or x8 (or x27 x83)) x90) x21))))) (and (and (or (or (or x37 (or x52 x132)) x40) x68) (or x53 (or x40 (or (or x100 x145) x147)))) (and (and (and (or x60 (or x95 (or x5 (or x102 x87)))) (or (or (or x41 (or x114 x148)) x95) x125)) (and (and (or x111 (or x158 (or (or x134 x6) x140))) (or (or x158 (or x129 (or x49 x146))) x64)) (and (or x93 (or x81 (or x109 (or x122 x44)))) (or x39 (or (or x32 (or x56 x18)) x81))))) (and (or (or (or x112 (or x14 x118)) x31) x85) (or x144 (or x31 (or x90 (or x74 x19)))))))) (and (and (or x25 (or (or (or x73 x7) x69) x68)) (or x25 (or x53 (or (or x28 x4) x66)))) (and (and (or (or (or (or x24 x113) x155) x144) x98) (or x98 (or x85 (or (or x26 x30) x21)))) (and (and (or x82 (or (or (or x2 x16) x104) x60)) (or (or (or (or x156 x84) x107) x125) x82)) (and (and (or x115 (or (or (or x59 x110) x126) x93)) (or x115 (or (or x63 (or x33 x46)) x39))) (and (or (or (or (or x70 x137) x138) x111) x92) (or (or x64 (or x12 (or x42 x61))) x92))))))))))
(assert (and (= (x136 x89 x55) x135) (and (= (x136 x89 x103) x143) (and (= x103 (x136 x135 x135)) (= (x136 x89 x89) x55)))))
(check-sat)
(exit)
